40560
1 1 1 0 1 1 1 1 1 1 1 1 0 0 1 1 1 1 0 1 1 1 1 1 1 1 1 1 1 1
19 20 1 8 9 26 8 6 6 5 9 4 10 14 9 2 7 16 16 20 16 16 4 19 17 9 5 0 20 16 4 5 7 14 2 16 7 24 24 10 1 25 26 1 22 22 15 5 22 19 17 14 24 4 17 4 2 5 14 15 17 27 22 25 15 21 5 14 9 10 19 9 2 8 22 15 16 11 15 14 5 25 11 23 20 5 15 2 24 15 9 29 0 27 29 17 20 29 11 2 6 9 6 11 27 7 1 11 11 9 25 17 29 19 7 17 1 8 11 2 15 10 10 22 28 15 21 20 8 2 23 21 23 9 16 26 5 23 14 1 2 17 19 11 11 19 11 8 11 9 8 11 1 22 4 25 0 29 22 17 23 8 19 17 26 0 2 5 29 23 2 14 24 20 11 7 2 14 27 4 26 4 28 22 28 15 29 4 28 29 0 8 26 20 8 10 4 1 27 8